120
150
33
33
45
61
39
51
69
58
60
60
30
23
79
99
43
71
60
90
26
40
50
75
33
88
75
40
21
78
86
27
64
48
91
24
99
80
51
91
21
88
53
90
62
88
91
87
99
38
98
20
99
31
75
31
26
26
93
81
97
86
20
99
53
60
69
75
79
70
77
87
63
81
51
90
60
64
82
68
59
96
63
96
100
62
88
53
100
47
54
26
94
25
69
57
31
97
82
24
23
73
71
30
71
62
41
79
96
100
47
82
27
91
26
91
75
59
28
59
67
75
